Competion/2024/scp-s/KDOI_R10_down/bargain/bargain2.in
6
10
3158927982863528
41423 65081 37768 31661 5606 86055 71796 46535 92370
277579549725
70320 38156 44846 72503 31582 84825 6501 13322 8714
9712949517179226
82133 20127 89809 98223 85692 63229 9847 36144 31800
7458738229327
26367 83190 15068 58502 21706 8703 79593 26109 88114
9558181231489842
75674 74654 10662 24703 42426 52480 91265 23980 91191
49251177139673
611 62237 16862 28753 12474 88770 5431 37895 71444
7644413993398317
82508 27079 1910 50919 38833 5446 54593 62464 29527
3388995132292741
99735 93776 26409 76254 86183 18673 64600 88811 53736
85116169184978
35689 13155 25818 10303 24563 23698 26510 59559 25499
843165612149
58796 13696 79415 77920 71167 59007 2320 3911 51317
