Competion/2024/scp-s/KDOI_R10_down/bargain/bargain2.ans
487927
100439
294862
344675
417877
102373
299307
657315
266206
347684
